%% 4 week period, 6 people
num_days = 20;
num_people = 6;
participation = array2d(1..num_people, 1..num_days,
  [ 
    % days 1 2 3 4 5
           1,1,1,0,0,  1,1,1,0,0, 1,1,1,0,0,  1,1,1,0,0, % p 1
           1,0,1,0,0,  1,0,1,0,0, 1,0,1,0,0,  1,0,1,0,0, % p 2
           1,1,1,1,1,  1,1,1,1,1, 1,1,1,1,1,  1,1,1,1,1, % p 3
           0,1,1,1,1,  0,1,1,1,1, 0,1,1,1,1,  0,1,1,1,1, % p 4

           1,1,1,0,0,  1,1,1,0,0, 1,1,1,0,0,  1,1,1,0,0, % p 5
           1,0,1,0,0,  1,0,1,0,0, 1,0,1,0,0,  1,0,1,0,0, % p 6
  ]);
